p edge 102
e 0 18
e 0 27
e 0 71
e 0 93
e 0 98
e 1 26
e 1 48
e 1 50
e 1 65
e 1 90
e 2 9
e 2 28
e 2 58
e 3 36
e 3 44
e 3 59
e 3 61
e 3 70
e 3 76
e 4 6
e 4 21
e 4 24
e 4 35
e 4 56
e 4 83
e 5 8
e 5 30
e 5 49
e 5 81
e 5 82
e 6 21
e 6 24
e 6 55
e 6 77
e 6 83
e 7 17
e 7 18
e 7 22
e 7 40
e 7 53
e 7 98
e 8 38
e 8 49
e 8 68
e 8 82
e 9 28
e 9 33
e 9 58
e 9 92
e 9 96
e 10 11
e 10 14
e 10 43
e 10 60
e 10 62
e 10 63
e 10 66
e 10 67
e 11 25
e 11 51
e 11 54
e 11 62
e 11 66
e 11 94
e 12 13
e 12 20
e 12 91
e 13 36
e 13 46
e 13 74
e 13 75
e 13 91
e 14 57
e 14 60
e 14 67
e 14 80
e 15 16
e 15 21
e 15 55
e 15 85
e 15 90
e 15 97
e 16 21
e 16 35
e 16 37
e 16 43
e 16 66
e 16 67
e 16 85
e 17 37
e 17 40
e 17 53
e 17 65
e 17 97
e 18 22
e 18 59
e 18 71
e 18 74
e 18 75
e 18 89
e 18 98
e 19 41
e 19 42
e 19 78
e 19 79
e 20 45
e 20 75
e 21 35
e 21 55
e 21 83
e 22 40
e 22 59
e 22 76
e 22 89
e 23 51
e 23 62
e 23 63
e 23 64
e 23 69
e 23 84
e 24 56
e 25 38
e 25 51
e 25 82
e 25 94
e 25 99
e 26 44
e 26 48
e 26 61
e 26 65
e 27 32
e 27 71
e 27 72
e 27 93
e 28 31
e 28 92
e 29 35
e 29 54
e 29 56
e 29 66
e 29 81
e 29 94
e 30 81
e 31 92
e 32 71
e 32 72
e 32 100
e 33 58
e 33 68
e 33 73
e 33 86
e 33 96
e 33 101
e 34 45
e 34 72
e 35 56
e 35 66
e 36 46
e 36 59
e 36 70
e 36 74
e 37 53
e 37 67
e 37 85
e 37 88
e 37 97
e 38 68
e 38 82
e 38 86
e 38 99
e 39 52
e 39 64
e 39 84
e 40 44
e 40 65
e 40 76
e 41 53
e 41 57
e 41 79
e 41 80
e 42 60
e 42 69
e 42 80
e 43 66
e 43 67
e 44 61
e 44 65
e 44 76
e 45 72
e 45 75
e 45 100
e 46 91
e 46 95
e 47 52
e 47 84
e 47 87
e 47 99
e 48 50
e 48 61
e 49 68
e 49 92
e 49 96
e 50 77
e 50 90
e 51 62
e 51 84
e 51 99
e 52 84
e 52 87
e 53 57
e 53 79
e 53 88
e 53 98
e 54 66
e 54 94
e 55 77
e 55 90
e 57 67
e 57 80
e 57 88
e 58 101
e 59 74
e 59 76
e 59 89
e 60 63
e 60 69
e 60 80
e 61 70
e 62 63
e 63 69
e 64 69
e 64 84
e 65 90
e 65 97
e 67 88
e 68 86
e 68 96
e 71 75
e 71 100
e 72 100
e 73 86
e 73 87
e 73 101
e 74 75
e 75 100
e 77 90
e 78 79
e 78 93
e 79 93
e 79 98
e 81 82
e 81 94
e 82 94
e 84 99
e 85 97
e 86 87
e 86 99
e 87 99
e 90 97
e 91 95
e 92 96
e 93 98
c k 17
